c colouring generated by benchmark framework
p edge 1000 245000
v 1 47
v 2 82
v 3 18
v 4 71
v 5 64
v 6 105
v 7 69
v 8 1
v 9 75
v 10 129
v 11 47
v 12 16
v 13 20
v 14 104
v 15 16
v 16 44
v 17 14
v 18 85
v 19 78
v 20 23
v 21 43
v 22 65
v 23 40
v 24 23
v 25 86
v 26 66
v 27 14
v 28 36
v 29 11
v 30 54
v 31 14
v 32 26
v 33 22
v 34 103
v 35 22
v 36 1
v 37 80
v 38 35
v 39 35
v 40 44
v 41 52
v 42 7
v 43 49
v 44 92
v 45 26
v 46 36
v 47 7
v 48 101
v 49 123
v 50 5
v 51 80
v 52 98
v 53 41
v 54 28
v 55 7
v 56 11
v 57 115
v 58 74
v 59 0
v 60 85
v 61 3
v 62 37
v 63 43
v 64 62
v 65 90
v 66 14
v 67 43
v 68 110
v 69 81
v 70 97
v 71 39
v 72 80
v 73 27
v 74 85
v 75 124
v 76 45
v 77 65
v 78 12
v 79 44
v 80 50
v 81 25
v 82 47
v 83 100
v 84 85
v 85 125
v 86 82
v 87 12
v 88 122
v 89 61
v 90 50
v 91 88
v 92 57
v 93 50
v 94 81
v 95 119
v 96 97
v 97 7
v 98 57
v 99 38
v 100 53
v 101 136
v 102 55
v 103 9
v 104 79
v 105 10
v 106 40
v 107 0
v 108 5
v 109 51
v 110 12
v 111 58
v 112 129
v 113 17
v 114 55
v 115 86
v 116 45
v 117 48
v 118 83
v 119 116
v 120 24
v 121 7
v 122 105
v 123 16
v 124 57
v 125 123
v 126 77
v 127 138
v 128 54
v 129 107
v 130 56
v 131 100
v 132 22
v 133 89
v 134 109
v 135 33
v 136 54
v 137 35
v 138 19
v 139 42
v 140 129
v 141 34
v 142 86
v 143 73
v 144 89
v 145 83
v 146 70
v 147 48
v 148 9
v 149 52
v 150 139
v 151 15
v 152 91
v 153 104
v 154 93
v 155 103
v 156 43
v 157 59
v 158 72
v 159 46
v 160 93
v 161 25
v 162 96
v 163 81
v 164 66
v 165 3
v 166 62
v 167 23
v 168 0
v 169 6
v 170 92
v 171 69
v 172 113
v 173 128
v 174 33
v 175 18
v 176 27
v 177 64
v 178 20
v 179 59
v 180 35
v 181 47
v 182 11
v 183 131
v 184 105
v 185 32
v 186 1
v 187 99
v 188 98
v 189 50
v 190 19
v 191 1
v 192 6
v 193 1
v 194 33
v 195 112
v 196 49
v 197 49
v 198 52
v 199 29
v 200 31
v 201 17
v 202 91
v 203 82
v 204 75
v 205 94
v 206 60
v 207 67
v 208 12
v 209 25
v 210 45
v 211 19
v 212 139
v 213 71
v 214 88
v 215 73
v 216 83
v 217 10
v 218 92
v 219 25
v 220 59
v 221 91
v 222 47
v 223 93
v 224 36
v 225 8
v 226 22
v 227 24
v 228 54
v 229 2
v 230 32
v 231 8
v 232 33
v 233 11
v 234 7
v 235 128
v 236 101
v 237 12
v 238 19
v 239 2
v 240 107
v 241 107
v 242 114
v 243 45
v 244 53
v 245 6
v 246 21
v 247 9
v 248 68
v 249 111
v 250 42
v 251 20
v 252 27
v 253 2
v 254 87
v 255 110
v 256 21
v 257 87
v 258 18
v 259 49
v 260 68
v 261 52
v 262 76
v 263 80
v 264 94
v 265 21
v 266 91
v 267 68
v 268 59
v 269 134
v 270 70
v 271 45
v 272 64
v 273 32
v 274 21
v 275 77
v 276 32
v 277 102
v 278 40
v 279 24
v 280 84
v 281 17
v 282 104
v 283 97
v 284 4
v 285 28
v 286 24
v 287 70
v 288 68
v 289 48
v 290 53
v 291 0
v 292 29
v 293 54
v 294 37
v 295 95
v 296 46
v 297 72
v 298 22
v 299 24
v 300 71
v 301 71
v 302 74
v 303 37
v 304 103
v 305 137
v 306 5
v 307 17
v 308 77
v 309 65
v 310 42
v 311 77
v 312 83
v 313 54
v 314 60
v 315 42
v 316 55
v 317 82
v 318 22
v 319 100
v 320 132
v 321 41
v 322 80
v 323 102
v 324 10
v 325 90
v 326 39
v 327 6
v 328 65
v 329 39
v 330 97
v 331 102
v 332 34
v 333 6
v 334 112
v 335 43
v 336 91
v 337 127
v 338 71
v 339 11
v 340 18
v 341 13
v 342 5
v 343 73
v 344 128
v 345 133
v 346 65
v 347 45
v 348 84
v 349 58
v 350 133
v 351 41
v 352 108
v 353 34
v 354 3
v 355 12
v 356 93
v 357 112
v 358 117
v 359 45
v 360 80
v 361 78
v 362 2
v 363 116
v 364 55
v 365 51
v 366 50
v 367 9
v 368 2
v 369 83
v 370 113
v 371 88
v 372 86
v 373 118
v 374 52
v 375 81
v 376 3
v 377 51
v 378 57
v 379 98
v 380 107
v 381 94
v 382 76
v 383 36
v 384 55
v 385 15
v 386 69
v 387 31
v 388 23
v 389 46
v 390 4
v 391 71
v 392 8
v 393 30
v 394 96
v 395 1
v 396 62
v 397 85
v 398 38
v 399 34
v 400 69
v 401 121
v 402 87
v 403 57
v 404 30
v 405 107
v 406 56
v 407 46
v 408 5
v 409 57
v 410 125
v 411 3
v 412 38
v 413 33
v 414 67
v 415 29
v 416 28
v 417 46
v 418 59
v 419 97
v 420 6
v 421 40
v 422 56
v 423 13
v 424 92
v 425 24
v 426 76
v 427 124
v 428 54
v 429 44
v 430 56
v 431 42
v 432 109
v 433 26
v 434 79
v 435 45
v 436 64
v 437 56
v 438 26
v 439 35
v 440 131
v 441 110
v 442 124
v 443 15
v 444 56
v 445 42
v 446 20
v 447 16
v 448 88
v 449 101
v 450 56
v 451 16
v 452 15
v 453 47
v 454 111
v 455 117
v 456 61
v 457 29
v 458 8
v 459 73
v 460 63
v 461 16
v 462 95
v 463 125
v 464 75
v 465 84
v 466 69
v 467 4
v 468 56
v 469 44
v 470 118
v 471 46
v 472 36
v 473 54
v 474 109
v 475 31
v 476 56
v 477 74
v 478 33
v 479 81
v 480 50
v 481 40
v 482 92
v 483 29
v 484 32
v 485 50
v 486 41
v 487 0
v 488 15
v 489 60
v 490 100
v 491 131
v 492 64
v 493 26
v 494 60
v 495 51
v 496 10
v 497 114
v 498 0
v 499 139
v 500 39
v 501 112
v 502 82
v 503 94
v 504 75
v 505 49
v 506 73
v 507 62
v 508 37
v 509 13
v 510 34
v 511 125
v 512 53
v 513 48
v 514 23
v 515 61
v 516 101
v 517 138
v 518 43
v 519 26
v 520 96
v 521 1
v 522 35
v 523 20
v 524 30
v 525 47
v 526 59
v 527 49
v 528 6
v 529 135
v 530 102
v 531 45
v 532 129
v 533 97
v 534 84
v 535 78
v 536 12
v 537 113
v 538 110
v 539 98
v 540 0
v 541 51
v 542 70
v 543 59
v 544 91
v 545 63
v 546 139
v 547 96
v 548 119
v 549 49
v 550 48
v 551 34
v 552 51
v 553 38
v 554 13
v 555 64
v 556 78
v 557 132
v 558 1
v 559 120
v 560 31
v 561 107
v 562 77
v 563 61
v 564 74
v 565 82
v 566 77
v 567 16
v 568 100
v 569 58
v 570 63
v 571 138
v 572 23
v 573 3
v 574 9
v 575 90
v 576 79
v 577 99
v 578 15
v 579 27
v 580 96
v 581 72
v 582 58
v 583 55
v 584 52
v 585 17
v 586 17
v 587 21
v 588 130
v 589 108
v 590 23
v 591 26
v 592 3
v 593 89
v 594 52
v 595 5
v 596 59
v 597 67
v 598 85
v 599 34
v 600 109
v 601 90
v 602 80
v 603 124
v 604 17
v 605 43
v 606 13
v 607 4
v 608 126
v 609 104
v 610 79
v 611 71
v 612 108
v 613 74
v 614 82
v 615 62
v 616 31
v 617 58
v 618 78
v 619 19
v 620 5
v 621 41
v 622 92
v 623 94
v 624 75
v 625 4
v 626 9
v 627 108
v 628 99
v 629 43
v 630 19
v 631 40
v 632 63
v 633 2
v 634 36
v 635 47
v 636 112
v 637 106
v 638 70
v 639 35
v 640 62
v 641 7
v 642 8
v 643 1
v 644 132
v 645 9
v 646 35
v 647 18
v 648 0
v 649 23
v 650 99
v 651 115
v 652 90
v 653 67
v 654 8
v 655 67
v 656 79
v 657 78
v 658 50
v 659 21
v 660 90
v 661 19
v 662 89
v 663 29
v 664 81
v 665 31
v 666 55
v 667 81
v 668 20
v 669 44
v 670 89
v 671 9
v 672 62
v 673 77
v 674 66
v 675 42
v 676 49
v 677 111
v 678 27
v 679 37
v 680 72
v 681 60
v 682 57
v 683 93
v 684 140
v 685 91
v 686 78
v 687 39
v 688 93
v 689 50
v 690 117
v 691 51
v 692 58
v 693 65
v 694 111
v 695 104
v 696 27
v 697 3
v 698 70
v 699 71
v 700 94
v 701 106
v 702 27
v 703 121
v 704 72
v 705 119
v 706 138
v 707 101
v 708 65
v 709 103
v 710 96
v 711 13
v 712 25
v 713 93
v 714 90
v 715 133
v 716 130
v 717 76
v 718 17
v 719 123
v 720 69
v 721 66
v 722 16
v 723 63
v 724 10
v 725 84
v 726 84
v 727 21
v 728 12
v 729 68
v 730 8
v 731 11
v 732 23
v 733 125
v 734 45
v 735 36
v 736 18
v 737 12
v 738 39
v 739 74
v 740 0
v 741 117
v 742 2
v 743 51
v 744 118
v 745 11
v 746 114
v 747 98
v 748 66
v 749 95
v 750 73
v 751 2
v 752 135
v 753 8
v 754 98
v 755 48
v 756 113
v 757 11
v 758 140
v 759 41
v 760 38
v 761 95
v 762 44
v 763 61
v 764 34
v 765 10
v 766 23
v 767 58
v 768 136
v 769 76
v 770 32
v 771 100
v 772 53
v 773 10
v 774 57
v 775 105
v 776 1
v 777 52
v 778 73
v 779 4
v 780 9
v 781 103
v 782 85
v 783 67
v 784 6
v 785 43
v 786 32
v 787 96
v 788 17
v 789 37
v 790 11
v 791 28
v 792 5
v 793 76
v 794 57
v 795 53
v 796 5
v 797 72
v 798 88
v 799 30
v 800 58
v 801 35
v 802 79
v 803 61
v 804 79
v 805 62
v 806 105
v 807 122
v 808 42
v 809 4
v 810 18
v 811 22
v 812 15
v 813 10
v 814 112
v 815 105
v 816 0
v 817 38
v 818 20
v 819 5
v 820 22
v 821 14
v 822 106
v 823 103
v 824 130
v 825 59
v 826 55
v 827 111
v 828 67
v 829 69
v 830 67
v 831 41
v 832 54
v 833 115
v 834 88
v 835 42
v 836 29
v 837 22
v 838 77
v 839 78
v 840 40
v 841 128
v 842 139
v 843 123
v 844 25
v 845 21
v 846 69
v 847 19
v 848 87
v 849 83
v 850 14
v 851 67
v 852 33
v 853 18
v 854 60
v 855 91
v 856 46
v 857 86
v 858 57
v 859 32
v 860 120
v 861 13
v 862 75
v 863 7
v 864 15
v 865 58
v 866 38
v 867 34
v 868 110
v 869 29
v 870 65
v 871 89
v 872 2
v 873 61
v 874 68
v 875 66
v 876 120
v 877 29
v 878 27
v 879 48
v 880 72
v 881 74
v 882 70
v 883 110
v 884 24
v 885 31
v 886 17
v 887 33
v 888 14
v 889 53
v 890 28
v 891 2
v 892 28
v 893 40
v 894 20
v 895 39
v 896 81
v 897 27
v 898 30
v 899 99
v 900 43
v 901 116
v 902 126
v 903 26
v 904 83
v 905 60
v 906 32
v 907 37
v 908 9
v 909 18
v 910 10
v 911 39
v 912 13
v 913 24
v 914 44
v 915 140
v 916 41
v 917 10
v 918 63
v 919 28
v 920 60
v 921 85
v 922 3
v 923 6
v 924 65
v 925 76
v 926 36
v 927 81
v 928 61
v 929 69
v 930 38
v 931 76
v 932 25
v 933 47
v 934 30
v 935 22
v 936 84
v 937 27
v 938 33
v 939 21
v 940 89
v 941 86
v 942 44
v 943 95
v 944 26
v 945 30
v 946 74
v 947 98
v 948 75
v 949 4
v 950 18
v 951 114
v 952 137
v 953 78
v 954 88
v 955 88
v 956 3
v 957 83
v 958 126
v 959 93
v 960 40
v 961 53
v 962 37
v 963 25
v 964 72
v 965 17
v 966 99
v 967 52
v 968 102
v 969 4
v 970 6
v 971 103
v 972 31
v 973 14
v 974 15
v 975 30
v 976 24
v 977 108
v 978 87
v 979 20
v 980 116
v 981 66
v 982 89
v 983 64
v 984 68
v 985 102
v 986 48
v 987 134
v 988 22
v 989 79
v 990 87
v 991 56
v 992 101
v 993 28
v 994 61
v 995 63
v 996 109
v 997 121
v 998 70
v 999 122
v 1000 46
